# MATERIAL PARAMETERS
variable        E equal 10.0 # Young's modulus
variable        nu equal 0.33 # Poisson ratio
variable        rho equal 7750 # initial mass density
variable        q1 equal 0.06 # standard artificial viscosity linear coefficient
variable        q2 equal 0.0  # standard artificial viscosity quadratic coefficient
variable        hg equal 10.0 # hourglass control coefficient
variable        cp equal 1.0  # heat capacity of material -- not used here
variable        sigma_yield equal 0.05 # plastic yield stress
variable        hardening_para equal 0
variable        contact_stiffness equal 1.5

# INITIALIZE LAMMPS
dimension       3
units			si
boundary        f f f # simulation box boundaries
atom_style      smd
atom_modify		map array
comm_modify     vel yes
comm_style      tiled
neigh_modify    every 10 delay 0 check yes one 50000 page 500000
newton          off

# # CREATE INITIAL GEOMETRY
# region          box block -20 20 -20 20 -20 20 units box
# create_box      3 box
read_data       balls.data extra/atom/types 1
group           indenter  type 1
group           balls     type 2
group           tlsph     type 2
group           inte      type 1 2

# DISCRETIZATION PARAMETERS
variable 	    l0 equal 1.0
variable 	    h equal 2.01*${l0} # SPH smoothing kernel radius
variable 	    vol_one equal ${l0}^3 # volume of one particle -- assuming unit thickness
variable 	    skin equal ${h} # Verlet list range
neighbor        ${skin} bin
set 		    group all volume ${vol_one}
set             group all smd/mass/density ${rho} # mass 7750
set 		    group all diameter ${h} # set SPH kernel radius

# DEFINE VELOCITY BOUNDARY CONDITIONS
fix             fix_vel_indenter indenter smd/setvel 0 0 -0.0005

# INTERACTION PHYSICS / MATERIAL MODEL #
pair_style      hybrid/overlay smd/tlsph smd/hertz 1.2 smd/tri_surface 1.1
pair_coeff      2 2 smd/tlsph *COMMON ${rho} ${E} ${nu} ${q1} ${q2} ${hg} ${cp} &
                *STRENGTH_LINEAR_PLASTIC ${sigma_yield} ${hardening_para} &
                *EOS_LINEAR & 
                *END
pair_coeff      2 2 smd/hertz 1.1
pair_coeff      1 2 smd/hertz ${contact_stiffness}
pair_coeff      2 3 smd/tri_surface ${contact_stiffness}
pair_coeff      1 1 none
pair_coeff      3 3 none
pair_coeff      1 3 none

# LOAD STL SURFACE
fix             stl_surface_fix all smd/wall_surface box.stl 3 65535
run             0
group           surface type 3

# TIME INTEGRATION
fix             force_fix surface setforce 0 0 0
fix             dtfix all smd/adjust_dt 0.1
fix             integration_fix all smd/integrate_tlsph

# SPECIFY TRAJECTORY OUTPUT
variable        dumpFreq equal 100
compute         dt_atom all smd/tlsph/dt
compute         epsdot tlsph smd/plastic/strain/rate
compute         S tlsph smd/tlsph/stress # Cauchy stress tensor
compute         E tlsph smd/tlsph/strain # Green-Lagrange strain tensor
compute         nn all smd/tlsph/num/neighs # number of neighbors for each particle
compute         p tlsph smd/plastic/strain

dump            dump_id inte custom ${dumpFreq} dump.csv@full_header &
                id type mol x y z c_p &
                c_S[7] c_S[8] &
                c_E[7] c_E[8] &
                vx vy vz c_dt_atom &
                c_nn c_epsdot
dump_modify     dump_id first yes

# STATUS OUTPUT
variable        indenter_z equal xcm(indenter,z)
variable        volume equal (v_indenter_z+8)/17
thermo          100
thermo_style    custom step dt f_dtfix v_indenter_z v_volume

# RUN SIMULATION
balance          1.1 rcb
fix              balance_fix all balance 200 1.1 rcb
run 150000
