####################################################################################################
#
# ULSPH example: water flow through a complex geometry read from a .STL file
#
# The boundary dump file (see below) can be converted into VTK format using the conversion
# tool dump2vtk_tris from the tools/smd directory.
#
# unit system: GPa / mm / ms
#
####################################################################################################

####################################################################################################
# MATERIAL PARAMETERS
####################################################################################################
variable        E equal 20.0 # Young's modulus
variable        nu equal 0.33 # Poisson ratio
variable        rho equal 7750 # initial mass density
variable        q1 equal 0.06 # standard artificial viscosity linear coefficient
variable        q2 equal 0.0  # standard artificial viscosity quadratic coefficient
variable        hg equal 10.0 # hourglass control coefficient
variable        cp equal 1.0  # heat capacity of material -- not used here
variable        sigma_yield equal 0.1 # plastic yield stress
variable        hardening_para equal 5
variable        contact_stiffness equal 1

####################################################################################################
# INITIALIZE LAMMPS
####################################################################################################
dimension       3
units           si
boundary        f f f # simulation box boundaries
atom_style      smd
atom_modify	map array
comm_modify     vel yes
comm_style      tiled
neigh_modify    every 10 delay 0 check yes exclude type 2 2 one 10000 page 100000
newton          off

####################################################################################################
# CREATE INITIAL GEOMETRY
####################################################################################################
variable        l0 equal 1 # lattice spacing for creating particles
lattice         sc ${l0}
region          box block -100 100 -100 100 -100 200 units box
create_box      3 box
region          particles cylinder z 0 0 8.9 20 40 units box
create_atoms    1 region particles
group           water type 1
group           tlsph type 1

region          indenter cylinder z 0 0 9.5 42 44 units box
create_atoms    3 region indenter
group           indenter type 3

group           inte type 1 3

####################################################################################################
# DISCRETIZATION PARAMETERS
####################################################################################################
variable        h equal 2.01*${l0} # SPH smoothing kernel radius
variable        vol_one equal ${l0}^3 # volume of one particle -- assuming unit thickness
variable        skin equal 0.1*${h} # Verlet list range
neighbor        ${skin} bin
variable        cr equal ${l0}/2
set             group all smd/contact/radius ${cr}
set             group all volume ${vol_one}
set             group all smd/mass/density ${rho}
set             group all diameter ${h} # set SPH kernel radius

####################################################################################################
# DEFINE GRAVITY BOUNDARY CONDITION
####################################################################################################
# fix             gfix all gravity 0.01 vector 0.0 0.0 -1.
fix             fix_vel indenter smd/setvel 0 0 -0.0005

####################################################################################################
# INTERACTION PHYSICS / MATERIAL MODEL
# We use polynomial EOS for the pressure and the Johnson Cook strength model
# An integration point fails (cannot support tension anymore) if the plastic strain exceeds 0.5.
####################################################################################################
pair_style      hybrid/overlay smd/tri_surface 1.0 smd/tlsph smd/hertz 1.2
pair_coeff      1 1 smd/tlsph *COMMON ${rho} ${E} ${nu} ${q1} ${q2} ${hg} ${cp} &
                *STRENGTH_LINEAR_PLASTIC ${sigma_yield} 0 &
                *EOS_LINEAR & 
                *END
pair_coeff      1 2 smd/tri_surface ${contact_stiffness}
pair_coeff      1 3 smd/hertz 1.5 0
pair_coeff      2 2 none
pair_coeff      3 3 none
pair_coeff      2 3 none

####################################################################################################
# SPECIFY TRAJECTORY OUTPUT
####################################################################################################
variable        dumpFreq equal 1000
compute         epsdot tlsph smd/plastic/strain/rate
compute         S tlsph smd/tlsph/stress # Cauchy stress tensor
compute         D tlsph smd/tlsph/strain/rate
compute         E tlsph smd/tlsph/strain # Green-Lagrange strain tensor
compute         nn tlsph smd/tlsph/num/neighs # number of neighbors for each particle
compute         p tlsph smd/plastic/strain
compute         shape tlsph smd/tlsph/shape
compute         orient tlsph smd/tlsph/orientation
compute         damage tlsph smd/damage

dump            dump_id all custom ${dumpFreq} Dump.csv@full_header &
                id type mol x y z c_p c_nn proc c_epsdot &
                c_S[7] c_S[8] c_S[9] c_S[10] c_S[11] &
                c_E[7] c_E[8] c_E[9] c_E[10] c_E[11] &
                c_shape[1] c_shape[2] c_shape[3] &
                c_orient[1] c_orient[2] c_orient[3] c_orient[4] &
                vx vy vz c_damage
dump_modify     dump_id first yes

# dump            surf_dump surface custom 999999999 surface.LAMMPS id type mol x y z  &
#                   c_surface_coords[1] c_surface_coords[2] c_surface_coords[3]          &
#                   c_surface_coords[4] c_surface_coords[5] c_surface_coords[6]          &
#                   c_surface_coords[7] c_surface_coords[8] c_surface_coords[9]
# dump_modify 	surf_dump first yes

####################################################################################################
# TIME INTEGRATION
####################################################################################################
fix             dtfix all smd/adjust_dt 0.1 # dynamically adjust time increment every step
fix             integration_fix inte smd/integrate_tlsph

####################################################################################################
# STATUS OUTPUT
####################################################################################################
variable        indenter_z equal xcm(indenter,z)
thermo          100
thermo_style    custom step dt f_dtfix v_indenter_z

####################################################################################################
# LOAD STL SURFACE
####################################################################################################
fix             stl_surface_fix all smd/wall_surface longTube.stl 2 65535
run             0 # This is important! Always run for 0 timesteps directly after loading STL file!
group           surface type 2

####################################################################################################
# RUN SIMULATION
####################################################################################################
# balance          1.1 rcb
# fix              balance_fix all balance 2000 1.1 rcb
run              500000
