variable pull_angle equal 45 # 引張方向(0,45,90,135,-45)
variable key string octplate1_039_lmpels_pull${pull_angle}
shell mkdir dumps
shell mkdir dumps/${key}
log dumps/${key}/log.lmp

variable        E equal 2.0
variable        rho equal 7874
variable        nu equal 0.3
variable        q1 equal 0.06
variable        q2 equal 0.0
variable        hg equal 10.0
variable        cp equal 1.0
variable        contact_stiffness equal 0.2


dimension       3
units			si
boundary        sm sm sm
atom_style      smd
atom_modify		map array
comm_modify     vel yes
neigh_modify    every 10 delay 0 check yes
newton          off

variable 	    l0 equal 0.001036
read_data       octplate_pfrom1.036slim.data
group		    tlsph type 1
group fpart0+   id 2001 2098 2195 2292 2389 2486 2583 2680 2777 2874 2971 3068 3165 3262 3359 3456 3553 3650 3747 3844 3941 4038 4135 4232 4329 4426 4523 4620 4717 4814 4911 5008 5105 5202 5299 5396 5493 5590 5687 5784 5881 9786 9883 9980 10077 10174 10271 10368 10465 10562 10659 10756 10853 10950 11047 11144 11241 11338 11435 11532 11629 11726 11823 11920 12017 12114 12211 12308 12405 12502 12599 12696 12793 12890 12987 13084 13181 13278 13375 13472 13569 13666 17571 17668 17765 17862 17959 18056 18153 18250 18347 18444 18541 18638 18735 18832 18929 19026 19123 19220 19317 19414 19511 19608 19705 19802 19899 19996 20093 20190 20287 20384 20481 20578 20675 20772 20869 20966 21063 21160 21257 21354 21451 25356 25453 25550 25647 25744 25841 25938 26035 26132 26229 26326 26423 26520 26617 26714 26811 26908 27005 27102 27199 27296 27393 27490 27587 27684 27781 27878 27975 28072 28169 28266 28363 28460 28557 28654 28751 28848 28945 29042 29139 29236 33141 33238 33335 33432 33529 33626 33723 33820 33917 34014 34111 34208 34305 34402 34499 34596 34693 34790 34887 34984 35081 35178 35275 35372 35469 35566 35663 35760 35857 35954 36051 36148 36245 36342 36439 36536 36633 36730 36827 36924 37021
group fpart0-   id 1905 2002 2099 2196 2293 2390 2487 2584 2681 2778 2875 2972 3069 3166 3263 3360 3457 3554 3651 3748 3845 3942 4039 4136 4233 4330 4427 4524 4621 4718 4815 4912 5009 5106 5203 5300 5397 5494 5591 5688 5785 9690 9787 9884 9981 10078 10175 10272 10369 10466 10563 10660 10757 10854 10951 11048 11145 11242 11339 11436 11533 11630 11727 11824 11921 12018 12115 12212 12309 12406 12503 12600 12697 12794 12891 12988 13085 13182 13279 13376 13473 13570 17475 17572 17669 17766 17863 17960 18057 18154 18251 18348 18445 18542 18639 18736 18833 18930 19027 19124 19221 19318 19415 19512 19609 19706 19803 19900 19997 20094 20191 20288 20385 20482 20579 20676 20773 20870 20967 21064 21161 21258 21355 25260 25357 25454 25551 25648 25745 25842 25939 26036 26133 26230 26327 26424 26521 26618 26715 26812 26909 27006 27103 27200 27297 27394 27491 27588 27685 27782 27879 27976 28073 28170 28267 28364 28461 28558 28655 28752 28849 28946 29043 29140 33045 33142 33239 33336 33433 33530 33627 33724 33821 33918 34015 34112 34209 34306 34403 34500 34597 34694 34791 34888 34985 35082 35179 35276 35373 35470 35567 35664 35761 35858 35955 36052 36149 36246 36343 36440 36537 36634 36731 36828 36925
group fpart90+  id 7745 7746 7747 7748 7749 7750 7751 7752 7753 7754 7755 7756 7757 7758 7759 7760 7761 7762 7763 7764 7765 7766 7767 7768 7769 7770 7771 7772 7773 7774 7775 7776 7777 7778 7779 7780 7781 7782 7783 7784 7785 15530 15531 15532 15533 15534 15535 15536 15537 15538 15539 15540 15541 15542 15543 15544 15545 15546 15547 15548 15549 15550 15551 15552 15553 15554 15555 15556 15557 15558 15559 15560 15561 15562 15563 15564 15565 15566 15567 15568 15569 15570 23315 23316 23317 23318 23319 23320 23321 23322 23323 23324 23325 23326 23327 23328 23329 23330 23331 23332 23333 23334 23335 23336 23337 23338 23339 23340 23341 23342 23343 23344 23345 23346 23347 23348 23349 23350 23351 23352 23353 23354 23355 31100 31101 31102 31103 31104 31105 31106 31107 31108 31109 31110 31111 31112 31113 31114 31115 31116 31117 31118 31119 31120 31121 31122 31123 31124 31125 31126 31127 31128 31129 31130 31131 31132 31133 31134 31135 31136 31137 31138 31139 31140 38885 38886 38887 38888 38889 38890 38891 38892 38893 38894 38895 38896 38897 38898 38899 38900 38901 38902 38903 38904 38905 38906 38907 38908 38909 38910 38911 38912 38913 38914 38915 38916 38917 38918 38919 38920 38921 38922 38923 38924 38925
group fpart90-  id 1 2 3 4 5 6 7 8 9 10 11 12 13 14 15 16 17 18 19 20 21 22 23 24 25 26 27 28 29 30 31 32 33 34 35 36 37 38 39 40 41 7786 7787 7788 7789 7790 7791 7792 7793 7794 7795 7796 7797 7798 7799 7800 7801 7802 7803 7804 7805 7806 7807 7808 7809 7810 7811 7812 7813 7814 7815 7816 7817 7818 7819 7820 7821 7822 7823 7824 7825 7826 15571 15572 15573 15574 15575 15576 15577 15578 15579 15580 15581 15582 15583 15584 15585 15586 15587 15588 15589 15590 15591 15592 15593 15594 15595 15596 15597 15598 15599 15600 15601 15602 15603 15604 15605 15606 15607 15608 15609 15610 15611 23356 23357 23358 23359 23360 23361 23362 23363 23364 23365 23366 23367 23368 23369 23370 23371 23372 23373 23374 23375 23376 23377 23378 23379 23380 23381 23382 23383 23384 23385 23386 23387 23388 23389 23390 23391 23392 23393 23394 23395 23396 31141 31142 31143 31144 31145 31146 31147 31148 31149 31150 31151 31152 31153 31154 31155 31156 31157 31158 31159 31160 31161 31162 31163 31164 31165 31166 31167 31168 31169 31170 31171 31172 31173 31174 31175 31176 31177 31178 31179 31180 31181
group fpart45+  id 5881 5976 6069 6160 6249 6336 6421 6504 6585 6664 6741 6816 6889 6960 7029 7096 7161 7224 7285 7344 7401 7456 7509 7560 7609 7656 7701 7744 7785 13666 13761 13854 13945 14034 14121 14206 14289 14370 14449 14526 14601 14674 14745 14814 14881 14946 15009 15070 15129 15186 15241 15294 15345 15394 15441 15486 15529 15570 21451 21546 21639 21730 21819 21906 21991 22074 22155 22234 22311 22386 22459 22530 22599 22666 22731 22794 22855 22914 22971 23026 23079 23130 23179 23226 23271 23314 23355 29236 29331 29424 29515 29604 29691 29776 29859 29940 30019 30096 30171 30244 30315 30384 30451 30516 30579 30640 30699 30756 30811 30864 30915 30964 31011 31056 31099 31140 37021 37116 37209 37300 37389 37476 37561 37644 37725 37804 37881 37956 38029 38100 38169 38236 38301 38364 38425 38484 38541 38596 38649 38700 38749 38796 38841 38884 38925
group fpart45-  id 1 42 85 130 177 226 277 330 385 442 501 562 625 690 757 826 897 970 1045 1122 1201 1282 1365 1450 1537 1626 1717 1810 1905 7786 7827 7870 7915 7962 8011 8062 8115 8170 8227 8286 8347 8410 8475 8542 8611 8682 8755 8830 8907 8986 9067 9150 9235 9322 9411 9502 9595 9690 15571 15612 15655 15700 15747 15796 15847 15900 15955 16012 16071 16132 16195 16260 16327 16396 16467 16540 16615 16692 16771 16852 16935 17020 17107 17196 17287 17380 17475 23356 23397 23440 23485 23532 23581 23632 23685 23740 23797 23856 23917 23980 24045 24112 24181 24252 24325 24400 24477 24556 24637 24720 24805 24892 24981 25072 25165 25260 31141 31182 31225 31270 31317 31366 31417 31470 31525 31582 31641 31702 31765 31830 31897 31966 32037 32110 32185 32262 32341 32422 32505 32590 32677 32766 32857 32950 33045
group fpart135+ id 5785 5882 5977 6070 6161 6250 6337 6422 6505 6586 6665 6742 6817 6890 6961 7030 7097 7162 7225 7286 7345 7402 7457 7510 7561 7610 7657 7702 7745 13570 13667 13762 13855 13946 14035 14122 14207 14290 14371 14450 14527 14602 14675 14746 14815 14882 14947 15010 15071 15130 15187 15242 15295 15346 15395 15442 15487 15530 21355 21452 21547 21640 21731 21820 21907 21992 22075 22156 22235 22312 22387 22460 22531 22600 22667 22732 22795 22856 22915 22972 23027 23080 23131 23180 23227 23272 23315 29140 29237 29332 29425 29516 29605 29692 29777 29860 29941 30020 30097 30172 30245 30316 30385 30452 30517 30580 30641 30700 30757 30812 30865 30916 30965 31012 31057 31100 36925 37022 37117 37210 37301 37390 37477 37562 37645 37726 37805 37882 37957 38030 38101 38170 38237 38302 38365 38426 38485 38542 38597 38650 38701 38750 38797 38842 38885
group fpart135- id 41 84 129 176 225 276 329 384 441 500 561 624 689 756 825 896 969 1044 1121 1200 1281 1364 1449 1536 1625 1716 1809 1904 2001 7826 7869 7914 7961 8010 8061 8114 8169 8226 8285 8346 8409 8474 8541 8610 8681 8754 8829 8906 8985 9066 9149 9234 9321 9410 9501 9594 9689 9786 15611 15654 15699 15746 15795 15846 15899 15954 16011 16070 16131 16194 16259 16326 16395 16466 16539 16614 16691 16770 16851 16934 17019 17106 17195 17286 17379 17474 17571 23396 23439 23484 23531 23580 23631 23684 23739 23796 23855 23916 23979 24044 24111 24180 24251 24324 24399 24476 24555 24636 24719 24804 24891 24980 25071 25164 25259 25356 31181 31224 31269 31316 31365 31416 31469 31524 31581 31640 31701 31764 31829 31896 31965 32036 32109 32184 32261 32340 32421 32504 32589 32676 32765 32856 32949 33044 33141

displace_atoms_smd all rotate 0 0 0 0 0 1 45 units box

variable 	h equal 2.01*${l0}
variable 	vol_one equal ${l0}^3
variable 	skin equal ${h}
neighbor    ${skin} bin
set 		group all volume ${vol_one}
set         group all smd/mass/density ${rho}
set 		group all diameter ${h}
set         group all smd/contact/radius ${l0}

variable 	    vel_max equal 0.001 # pull velocity
variable 	    vel_x_max equal ${vel_max}*cos(${pull_angle}*PI/180)
variable 	    vel_y_max equal ${vel_max}*sin(${pull_angle}*PI/180)
print "# vel_max: ${vel_max} (${vel_x_max},${vel_y_max})"
variable        vel_up equal ${vel_max}*(1.0-exp(-0.01*time))
variable        vel_down equal -${vel_max}*(1.0-exp(-0.01*time))
variable 	    vel_x_up equal v_vel_up*cos(${pull_angle}*PI/180)
variable 	    vel_x_down equal -v_vel_x_up
variable 	    vel_y_up equal v_vel_up*sin(${pull_angle}*PI/180)
variable 	    vel_y_down equal -v_vel_y_up
# fix             fix_right fpart${pull_angle}+ smd/setvel v_vel_x_up v_vel_y_up 0
# fix             fix_left fpart${pull_angle}- smd/setvel v_vel_x_down v_vel_y_down 0

fix             fix_right fpart0+ smd/setvel v_vel_x_up v_vel_y_up 0
fix             fix_left fpart0- smd/setvel v_vel_x_down v_vel_y_down 0


# pair_style      hybrid/overlay smd/tlsph smd/hertz 1.0
# pair_coeff      1 1 smd/tlsph *COMMON ${rho} ${E} ${nu} ${q1} ${q2} ${hg} ${cp} &
#                 *STRENGTH_LINEAR &
#                 *EOS_LINEAR & 
#                 *END
# pair_coeff      1 1 smd/hertz ${contact_stiffness} 0

pair_style      smd/tlsph
pair_coeff      1 1 *COMMON ${rho} ${E} ${nu} ${q1} ${q2} ${hg} ${cp} &
                *STRENGTH_LINEAR &
                *EOS_LINEAR & 
                *END


fix             dtfix tlsph smd/adjust_dt 0.1
fix             integration_fix tlsph smd/integrate_tlsph


compute         S tlsph smd/tlsph/stress
compute         E tlsph smd/tlsph/strain
compute         nn all smd/tlsph/num/neighs
compute         p tlsph smd/plastic/strain
compute         damage tlsph smd/damage
compute         disp all displace/atom
compute         shape tlsph smd/tlsph/shape
compute         orient tlsph smd/tlsph/orientation

dump            dump_id all custom 100 atomdump &
                id type x y z &
                c_damage c_p  c_nn&
                vx vy vz &
                c_S[1] c_S[2] c_S[3] c_S[4] c_S[5] c_S[6] c_S[7] c_S[8] c_S[9] c_S[10] c_S[11] &
                c_E[1] c_E[2] c_E[3] c_E[4] c_E[5] c_E[6] c_E[7] c_E[8] c_E[9] c_E[10] c_E[11] &
                c_shape[1] c_shape[2] c_shape[3] &
                c_orient[1] c_orient[2] c_orient[3] c_orient[4] &
                c_disp[1] c_disp[2] c_disp[3] c_disp[4]
dump_modify     dump_id first yes


compute xmax_right fpart${pull_angle}+ reduce max c_disp[4]
variable disp_right equal c_xmax_right

thermo          100
thermo_style    custom step dt time f_dtfix v_disp_right
variable        dat_step equal step
variable        dat_time equal time
fix dat_timestep all print 1000 "${dat_step},${dat_time}" file dumps/${key}/timesteps.csv title "step,time" screen no


run 30000
